hypoDD_2
* Parameter control file hypoDD.inp:
* IDAT Data type: 1 = cross correlation data only; 2 = absolute (catalog) data only; 3 = x-corr &
* catalog.
* IPHA Phase: 1 = P-wave; 2 = S-wave; 3 = P- & S-wave.
* DIST Max. distance between centroid of event cluster and stations.
* OBSCC, OBSCT Min. number of x-corr, catalog links per event pair to form a continuous cluster.
* 0 = no clustering performed.
* If IDAT = 3, the sum of OBSCC and OBSCT is taken and used for both.
* MINDS, MAXDS Min./max. distance between indivual event pairs and stations. (-999: not used).
* MAXGAP Max. azimuthal gap between individual event pairs and stations. (-999 or 365: not used).
* ISTART Initial locations: 1 = start from cluster centroid; 2 = start from catalog locations.
* ISOLV Least squares solution: 1 = singular value decomposition (SVD);
* 2 = conjugate gradients (LSQR).
* IAQ 1 = Remove air-quakes. Remove from the event list for all subsequent iterations. The last
* iteration is repeated.
* 2 = Keep air-quakes. Reset depths to the depths of the previous (successful) iteration, and
* continue with subsequent iterations. Air-quakes are events that locate above the model
* surface.
* NSET Number of sets of iteration specifications following.
* NITER Number of iterations for the set of weighting parameters that follow.
* WTCCP, WTCCS Weight for cross-corr P-wave, S-wave data. –999 = data not used.
* WTCTP, WTCTS Weight for catalog P-wave, S-wave data. –999 = data not used.
* WRCC, WRCT Cutoff threshold for outliers located on the tails of the cross-corr, catalog data.
* 0<1 = absolute threshold in sec (static cutoff).
* ≥1 = factor to multiply standard deviation (dynamic cutoff).
* -999 = no outlier removed.
* WDCC, WDCT Max. event separation distance [km] for c-c data, catalog data. -999 = not activated.
* DAMP Damping (only for ISOLV= 2).
* IMOD Specification of forward model (imod = 0 was used in hypoDD version 1):
* 0 = 1D layered P-velocity model with constant Vp/Vs ratio (e.g. hypoDD 1).
* 1 = 1D layered P-velocity model with variable Vp/Vs ratio.
* 4 = Station specific 1D layered velocity models.
* 5 = Straight ray path (i.e. constant velocity). Allows for negative station
* elevations, including stations locations below sources (e.g. borehole
* networks).
* 9 = 3D P- and S-velocity model using the pseudo-bending ray tracing algorithm
* from the simul2000.
*--- INPUT FILE SELECTION
* filename of cross-corr diff. time input(blank if not available):
dt.cc
* filename of catalog travel time input(blank if not available):
dt.ct
* filename of initial hypocenter input:
event.dat
* filename of station input:
station.dat
*
*--- OUTPUT FILE SELECTION
* filename of initial hypocenter output (if blank: output to hypoDD.loc):
hypoDD.loc
* filename of relocated hypocenter output (if blank: output to hypoDD.reloc):
hypoDD.reloc
* filename of station residual output (if blank: no output written):
hypoDD.sta
* filename of data residual output (if blank: no output written):
hypoDD.res
* filename of takeoff angle output (if blank: no output written):
hypoDD.src
*
*--- DATA SELECTION:
* IDAT IPHA DIST
2 3 50
*
*--- EVENT CLUSTERING:
* OBSCC OBSCT MINDS MAXDS MAXGAP
0 0 0 150 -999
*
*--- SOLUTION CONTROL:
* ISTART ISOLV IAQ NSET
2 2 1 2
*
*--- DATA WEIGHTING AND REWEIGHTING:
* NITER WTCCP WTCCS WRCC WDCC WTCTP WTCTS WRCT WDCT DAMP
5 1 0.5 -999 -999 0.1 0.05 -999 -999 -999
5 1 0.5 6 4 0.1 0.05 3 10 -999
*
*--- FORWARD MODEL SPECIFICATIONS:
* IMOD
0
*** If IMOD=0:
* NLAY RATIO
6 1.73
* TOP:
0.0 1.0 3.0 6.0 14.0 25.0
* VEL:
3.77 4.64 5.34 5.75 6.22 7.98
*
*** If IMOD=1 or IMOD=5:
* TOP:
* 0.0 1.0 3.0 6.0 14.0 25.0
* VELP:
* 3.77 4.64 5.34 5.75 6.22 7.98
* RAT:
* 1.73 1.73 1.73 1.73 1.73 1.73
*
*** If IMOD=4:
* 1DMOD:
* models1D.dat
* Leave two lines empty:
* EMPTYLINE
* EMPTYLINE
**
*** If IMOD=9:
* 3DMOD:
* vel3d.dat
* LAT3D LON3D ROT3D:
* 37.5 -122.20 0.0
* IPHA NDIP ISKIP SCALE1 SCALE2 XFAX TLIM NITPB:
* 2 9 2 1 1 1.35 0.0005 50
*
*--- CLUSTER/EVENT SELECTION:
* CID
0
* ID
* end of hypoDD.inp
